1,88,63
2,88,45
3,68,5
4,35,94
5,92,66
6,57,10
7,53,80
8,85,29
9,77,40
10,23,5
11,80,40
12,29,54
13,19,98
14,49,97
15,58,14
16,76,82
17,11,61
18,69,73
19,70,94
20,9,62
21,2,1
22,12,36
23,54,84
24,58,88
25,67,32
26,51,72
27,86,75
28,42,56
29,61,22
30,48,85
31,36,30
32,56,75
33,32,39
34,82,12
35,1,34
36,91,15
37,39,82
38,14,42
39,63,41
40,35,72
41,62,25
42,5,2
43,95,91
44,75,46
45,68,73
46,45,60
47,82,35
48,50,78
49,83,37
50,48,29
